10
5
3401
0
0
37 49 54 52 59
1
0
36 48 53 53 60
2
0
38 51 54 51 56
3
0
38 49 54 47 60
4
0
38 50 56 53 59
5
0
37 50 56 53 60
6
0
39 51 54 56 63
7
0
34 48 55 54 54
8
0
37 50 54 54 57
9
0
34 48 58 57 59
